80 8
44 7
42 6
64 95
28 20
91 56
43 89
92 36
60 79
19 44
96 35
65 20
6 88
41 19
76 26
35 57
30 100
64 42
77 100
78 51
58 21
99 19
37 69
30 9
56 62
88 1
26 73
52 78
37 51
26 4
90 28
30 2
77 44
69 14
27 47
68 4
100 97
50 98
34 33
62 64
80 53
34 97
39 77
54 100
11 47
12 92
1 40
50 82
49 66
92 55
49 51
48 80
28 23
84 85
95 39
57 85
95 26
34 56
26 13
45 23
67 13
4 18
83 65
15 51
44 46
81 13
62 49
76 48
86 34
77 31
26 36
45 83
49 34
7 29
21 18
91 74
96 60
50 53
9 55
41 39
53 56
534 640
485 549
491 591
517 589
402 480
437 496
458 523
361 411
